NAME : att48.tsp
COMMENT : Optimal tour for att48.tsp
TYPE : TOUR
DIMENSION : 48
Total Length: 35747.5247633848
TOUR_SECTION
1
8
9
38
31
44
18
7
28
6
37
19
27
17
43
30
36
46
33
12
15
40
11
23
3
22
16
41
34
14
48
5
29
2
26
4
35
45
10
42
24
32
39
25
13
21
47
20
-1
EOF
